

******************************************************************************
This program contains Ipopt, a library for large-scale nonlinear optimization.
 Ipopt is released as open source code under the Eclipse Public License (EPL).
         For more information visit https://github.com/coin-or/Ipopt
******************************************************************************

This is Ipopt version 3.14.11, running with linear solver MUMPS 5.5.1.

Number of nonzeros in equality constraint Jacobian...:        0
Number of nonzeros in inequality constraint Jacobian.:        4
Number of nonzeros in Lagrangian Hessian.............:        3

Total number of variables............................:        2
                     variables with only lower bounds:        0
                variables with lower and upper bounds:        2
                     variables with only upper bounds:        0
Total number of equality constraints.................:        0
Total number of inequality constraints...............:        2
        inequality constraints with only lower bounds:        0
   inequality constraints with lower and upper bounds:        0
        inequality constraints with only upper bounds:        2

iter    objective    inf_pr   inf_du lg(mu)  ||d||  lg(rg) alpha_du alpha_pr  ls
   0  2.9143030e+02 9.99e-01 7.91e+01  -1.0 0.00e+00    -  0.00e+00 0.00e+00   0
   1  2.9014634e+02 9.99e-01 7.78e+01  -1.0 1.43e+00    -  4.82e-02 1.03e-02f  1
   2  2.8881380e+02 9.95e-01 1.54e+02  -1.0 8.22e+00    -  5.83e-02 3.57e-03f  1
   3  3.5375027e+01 5.59e+01 1.17e+04  -1.0 6.60e+00    -  7.60e-03 1.00e+00f  1
   4  3.7853918e+01 4.09e+01 8.89e+03  -1.0 3.22e+00    -  5.14e-01 2.55e-01h  1
   5  1.0949205e+02 4.52e+00 2.24e+03  -1.0 2.80e+00    -  7.89e-01 1.00e+00h  1
   6  1.7446263e+02 0.00e+00 5.65e+02  -1.0 1.30e+00    -  1.00e+00 1.00e+00h  1
   7  2.0105183e+02 0.00e+00 1.29e+02  -1.0 5.34e-01    -  1.00e+00 1.00e+00h  1
   8  1.9042686e+02 1.41e-01 4.23e+01  -1.0 4.99e-01    -  5.76e-01 1.00e+00f  1
   9  1.9163686e+02 3.76e-02 2.87e+01  -1.0 3.67e-01   2.0 1.00e+00 7.81e-01h  1
iter    objective    inf_pr   inf_du lg(mu)  ||d||  lg(rg) alpha_du alpha_pr  ls
  10  1.6799536e+02 1.18e-01 4.10e+01  -1.0 7.57e-01    -  4.74e-01 1.00e+00f  1
  11  1.6384031e+02 0.00e+00 1.65e+01  -1.0 4.95e-01   1.5 1.00e+00 1.00e+00f  1
  12  1.1411203e+02 0.00e+00 3.70e+01  -1.0 3.07e+00    -  3.45e-01 1.00e+00f  1
  13  1.1445385e+02 0.00e+00 8.08e+00  -1.0 7.28e-01   1.0 1.00e+00 1.00e+00h  1
  14  9.6596513e+01 1.58e-01 6.22e+00  -1.0 8.49e+00    -  3.66e-01 2.27e-01f  1
  15  9.6444411e+01 1.69e-01 4.02e+00  -1.0 8.23e-01    -  1.00e+00 4.60e-02h  1
  16  9.6879297e+01 6.02e-02 1.08e+00  -1.0 6.41e-01    -  1.00e+00 1.00e+00f  1
  17  9.7378440e+01 0.00e+00 1.54e-02  -1.0 1.82e-01    -  1.00e+00 1.00e+00h  1
  18  9.7312339e+01 0.00e+00 5.15e-04  -2.5 1.20e-02    -  1.00e+00 1.00e+00h  1
  19  9.7309600e+01 0.00e+00 7.55e-07  -3.8 4.98e-04    -  1.00e+00 1.00e+00h  1
iter    objective    inf_pr   inf_du lg(mu)  ||d||  lg(rg) alpha_du alpha_pr  ls
  20  9.7309451e+01 0.00e+00 1.54e-09  -5.7 1.86e-05    -  1.00e+00 1.00e+00h  1
  21  9.7309449e+01 0.00e+00 2.30e-13  -8.6 2.30e-07    -  1.00e+00 1.00e+00h  1

Number of Iterations....: 21

                                   (scaled)                 (unscaled)
Objective...............:   9.7309449422321990e+01    9.7309449422321990e+01
Dual infeasibility......:   2.3017019151158578e-13    2.3017019151158578e-13
Constraint violation....:   0.0000000000000000e+00    0.0000000000000000e+00
Variable bound violation:   0.0000000000000000e+00    0.0000000000000000e+00
Complementarity.........:   2.5061039675412176e-09    2.5061039675412176e-09
Overall NLP error.......:   2.5061039675412176e-09    2.5061039675412176e-09


Number of objective function evaluations             = 22
Number of objective gradient evaluations             = 22
Number of equality constraint evaluations            = 0
Number of inequality constraint evaluations          = 22
Number of equality constraint Jacobian evaluations   = 0
Number of inequality constraint Jacobian evaluations = 22
Number of Lagrangian Hessian evaluations             = 21
Total seconds in IPOPT                               = 0.013

EXIT: Optimal Solution Found.
 
Ipopt 3.14.11: Optimal Solution Found
